
(declare-fun %Y () (_ BitVec 11))
(declare-fun C2 () (_ BitVec 11))
(declare-fun C1 () (_ BitVec 28))
(declare-fun %X () (_ BitVec 28))
(assert (let ((_let_0 (bvand %X C1))) (let ((_let_1 (not (= ((_ extract 10 6) C2) (_ bv0 5))))) (let ((_let_2 (not (= ((_ extract 10 9) C2) (_ bv0 2))))) (let ((_let_3 (not (= ((_ extract 10 10) C2) (_ bv0 1))))) (let ((_let_4 (not (= ((_ extract 8 8) C2) (_ bv0 1))))) (let ((_let_5 (not (= ((_ extract 7 7) C2) (_ bv0 1))))) (let ((_let_6 (not (= ((_ extract 5 3) C2) (_ bv0 3))))) (let ((_let_7 (not (= ((_ extract 5 5) C2) (_ bv0 1))))) (let ((_let_8 (not (= ((_ extract 4 4) C2) (_ bv0 1))))) (let ((_let_9 (not (= ((_ extract 2 2) C2) (_ bv0 1))))) (let ((_let_10 (not (= ((_ extract 1 1) C2) (_ bv0 1))))) (let ((_let_11 (not (= ((_ extract 27 14) C1) (_ bv0 14))))) (let ((_let_12 (not (= ((_ extract 27 21) C1) (_ bv0 7))))) (let ((_let_13 (not (= ((_ extract 27 25) C1) (_ bv0 3))))) (let ((_let_14 (not (= ((_ extract 27 27) C1) (_ bv0 1))))) (let ((_let_15 (not (= ((_ extract 26 26) C1) (_ bv0 1))))) (let ((_let_16 (not (= ((_ extract 24 23) C1) (_ bv0 2))))) (let ((_let_17 (not (= ((_ extract 24 24) C1) (_ bv0 1))))) (let ((_let_18 (not (= ((_ extract 22 22) C1) (_ bv0 1))))) (let ((_let_19 (not (= ((_ extract 20 18) C1) (_ bv0 3))))) (let ((_let_20 (not (= ((_ extract 20 20) C1) (_ bv0 1))))) (let ((_let_21 (not (= ((_ extract 19 19) C1) (_ bv0 1))))) (let ((_let_22 (not (= ((_ extract 17 16) C1) (_ bv0 2))))) (let ((_let_23 (not (= ((_ extract 17 17) C1) (_ bv0 1))))) (let ((_let_24 (not (= ((_ extract 15 15) C1) (_ bv0 1))))) (let ((_let_25 (not (= ((_ extract 13 7) C1) (_ bv0 7))))) (let ((_let_26 (not (= ((_ extract 13 11) C1) (_ bv0 3))))) (let ((_let_27 (not (= ((_ extract 13 13) C1) (_ bv0 1))))) (let ((_let_28 (not (= ((_ extract 12 12) C1) (_ bv0 1))))) (let ((_let_29 (not (= ((_ extract 10 9) C1) (_ bv0 2))))) (let ((_let_30 (not (= ((_ extract 10 10) C1) (_ bv0 1))))) (let ((_let_31 (not (= ((_ extract 8 8) C1) (_ bv0 1))))) (let ((_let_32 (not (= ((_ extract 6 4) C1) (_ bv0 3))))) (let ((_let_33 (not (= ((_ extract 6 6) C1) (_ bv0 1))))) (let ((_let_34 (not (= ((_ extract 5 5) C1) (_ bv0 1))))) (let ((_let_35 (not (= ((_ extract 3 2) C1) (_ bv0 2))))) (let ((_let_36 (not (= ((_ extract 3 3) C1) (_ bv0 1))))) (let ((_let_37 (not (= ((_ extract 1 1) C1) (_ bv0 1))))) (and (bvsge (ite _let_1 (ite _let_2 (ite _let_3 (_ bv10 32) (_ bv9 32)) (ite _let_4 (_ bv8 32) (ite _let_5 (_ bv7 32) (_ bv6 32)))) (ite _let_6 (ite _let_7 (_ bv5 32) (ite _let_8 (_ bv4 32) (_ bv3 32))) (ite _let_9 (_ bv2 32) (ite _let_10 (_ bv1 32) (_ bv0 32))))) (ite _let_11 (ite _let_12 (ite _let_13 (ite _let_14 (_ bv27 32) (ite _let_15 (_ bv26 32) (_ bv25 32))) (ite _let_16 (ite _let_17 (_ bv24 32) (_ bv23 32)) (ite _let_18 (_ bv22 32) (_ bv21 32)))) (ite _let_19 (ite _let_20 (_ bv20 32) (ite _let_21 (_ bv19 32) (_ bv18 32))) (ite _let_22 (ite _let_23 (_ bv17 32) (_ bv16 32)) (ite _let_24 (_ bv15 32) (_ bv14 32))))) (ite _let_25 (ite _let_26 (ite _let_27 (_ bv13 32) (ite _let_28 (_ bv12 32) (_ bv11 32))) (ite _let_29 (ite _let_30 (_ bv10 32) (_ bv9 32)) (ite _let_31 (_ bv8 32) (_ bv7 32)))) (ite _let_32 (ite _let_33 (_ bv6 32) (ite _let_34 (_ bv5 32) (_ bv4 32))) (ite _let_35 (ite _let_36 (_ bv3 32) (_ bv2 32)) (ite _let_37 (_ bv1 32) (_ bv0 32))))))) (= (bvand C1 (bvsub C1 (_ bv1 28))) (_ bv0 28)) (= (bvand C2 (bvsub C2 (_ bv1 11))) (_ bv0 11)) (not (= (ite (= (ite (= _let_0 (_ bv0 28)) (_ bv1 1) (_ bv0 1)) (_ bv1 1)) (bvor %Y C2) %Y) (bvor (bvxor (bvshl ((_ extract 10 0) _let_0) (bvsub (ite _let_1 (ite _let_2 (ite _let_3 (_ bv10 11) (_ bv9 11)) (ite _let_4 (_ bv8 11) (ite _let_5 (_ bv7 11) (_ bv6 11)))) (ite _let_6 (ite _let_7 (_ bv5 11) (ite _let_8 (_ bv4 11) (_ bv3 11))) (ite _let_9 (_ bv2 11) (ite _let_10 (_ bv1 11) (_ bv0 11))))) (ite _let_11 (ite _let_12 (ite _let_13 (ite _let_14 (_ bv27 11) (ite _let_15 (_ bv26 11) (_ bv25 11))) (ite _let_16 (ite _let_17 (_ bv24 11) (_ bv23 11)) (ite _let_18 (_ bv22 11) (_ bv21 11)))) (ite _let_19 (ite _let_20 (_ bv20 11) (ite _let_21 (_ bv19 11) (_ bv18 11))) (ite _let_22 (ite _let_23 (_ bv17 11) (_ bv16 11)) (ite _let_24 (_ bv15 11) (_ bv14 11))))) (ite _let_25 (ite _let_26 (ite _let_27 (_ bv13 11) (ite _let_28 (_ bv12 11) (_ bv11 11))) (ite _let_29 (ite _let_30 (_ bv10 11) (_ bv9 11)) (ite _let_31 (_ bv8 11) (_ bv7 11)))) (ite _let_32 (ite _let_33 (_ bv6 11) (ite _let_34 (_ bv5 11) (_ bv4 11))) (ite _let_35 (ite _let_36 (_ bv3 11) (_ bv2 11)) (ite _let_37 (_ bv1 11) (_ bv0 11)))))))) C2) %Y))) (not (= C1 (_ bv0 28))) (not (= C2 (_ bv0 11)))))))))))))))))))))))))))))))))))))))))))
(assert true)
(check-sat)